n_locations = 4;
loc_names = ["HQ", "Edeka", "Burger King", "Audi Forum"];

distances = [| 0, 1, 2, 3 
             | 4, 0, 3, 5
             | 3, 7, 0, 5
             | 4, 3, 2, 0 |];
             
durations = [| 0, 1, 2, 3 
             | 4, 0, 3, 5
             | 3, 7, 0, 5
             | 4, 3, 2, 0 |];
                          
max_length = 11;